c Output_time 26.03.2020 18:15:13_+0100 1585242913726481848
c ** Program information **
c program_name                          "QBRG_debug"
c version                               "0.3.20"
c date                                  "25.3.2020"
c gid_id                                "673970833836058123f633335630c185360d632e"
c author                                "Oliver Kullmann"
c url                                   "https://github.com/OKullmann/oklibrary/blob/master/Satisfiability/Transformers/Generators/Random/QBRG.cpp"
c ** Machine information **
c machine_name                          "chyna-Lenovo-G50-70"
c bogomips                              3791.08
c ** Compilation information **
c compiler_version                      "g++ 7.5.0"
c compilation_date                      "Mar_26_2020 11:16:30"
c compilation_options                   "--std=c++17 -pedantic -fmax-errors=5 -Wall -Wextra -g -D_GLIBCXX_DEBUG"
c NDEBUG                                0
c OPTIMIZE                              0
c ** Parameters **
c command-line                          "./QBRG_debug" "a40 e40 a40 40" "279*1,1|2-2,1|3-3,1|4-4,1" "" "1,t" ""
c output                                "QuBlRaGe_160_279_1585242913726315848.qdimacs"
c options                               "filtered,renamed"
c num_quantifier_blocks                 4
c  quantifier_blocks                    1:a1-40 2:e41-80 3:a81-120 4:e121-160
c num_clause-blocks                     1
c  clause-blocks                        279 * {1-40,1,1/2} | {41-80,1,1/2} | {81-120,1,1/2} | {121-160,1,1/2}
c num_e-seeds                           37+2=39
c  e-seeds                              1 0 1 0 5 160 2 40 0 40 1 40 0 40 1 279 4 1 1 1 1 2 2 2 1 1 2 3 3 1 1 2 4 4 1 1 2 1 1585242913726315197
p cnf 160 279
a 1 2 3 4 5 6 7 8 9 10 11 12 13 14 15 16 17 18 19 20 21 22 23 24 25 26 27 28 29 30 31 32 33 34 35 36 37 38 39 40 0
e 41 42 43 44 45 46 47 48 49 50 51 52 53 54 55 56 57 58 59 60 61 62 63 64 65 66 67 68 69 70 71 72 73 74 75 76 77 78 79 80 0
a 81 82 83 84 85 86 87 88 89 90 91 92 93 94 95 96 97 98 99 100 101 102 103 104 105 106 107 108 109 110 111 112 113 114 115 116 117 118 119 120 0
e 121 122 123 124 125 126 127 128 129 130 131 132 133 134 135 136 137 138 139 140 141 142 143 144 145 146 147 148 149 150 151 152 153 154 155 156 157 158 159 160 0
-13 -76 81 121 0
-32 -49 -85 121 0
34 63 -87 121 0
-19 -56 -100 121 0
-1 48 101 121 0
-2 -49 117 121 0
8 -62 84 122 0
-2 64 95 122 0
16 -49 84 -123 0
19 -74 -92 -123 0
4 75 83 123 0
-4 44 86 123 0
-12 71 -106 123 0
-20 -54 82 -124 0
-24 46 108 -124 0
-18 -65 -116 -124 0
6 71 -111 124 0
-24 -75 -105 -125 0
2 -42 92 125 0
12 -49 98 125 0
26 -56 107 125 0
25 -67 117 125 0
32 -79 -81 -126 0
-39 -42 113 -126 0
10 56 -84 126 0
-4 -63 -87 126 0
38 47 -89 126 0
30 -67 -99 126 0
-9 80 -108 126 0
17 61 116 126 0
-7 60 -117 126 0
40 -54 -81 -127 0
-19 44 84 -127 0
18 48 -85 -127 0
29 -61 87 -127 0
-30 64 -94 -127 0
-30 71 -97 -127 0
-22 51 -101 -127 0
2 -48 -109 -127 0
-24 -60 -109 -127 0
14 -47 -117 -127 0
-9 47 -89 -128 0
34 -45 92 -128 0
-30 42 -111 -128 0
16 -61 -82 128 0
9 61 82 128 0
12 -57 -85 128 0
30 66 -115 128 0
-25 -46 117 128 0
7 -80 118 128 0
11 50 -93 -129 0
27 -53 -93 -129 0
12 -64 93 -129 0
29 -74 110 -129 0
-8 -75 -120 -129 0
-24 -66 109 129 0
30 -75 -81 -130 0
-25 -51 -88 -130 0
14 -72 115 -130 0
-26 -80 117 -130 0
-18 42 93 130 0
14 78 117 130 0
30 -60 82 -131 0
9 -61 -83 -131 0
-29 -80 -87 -131 0
19 44 89 -131 0
9 -67 -91 -131 0
24 78 -100 -131 0
-14 41 82 131 0
28 72 -92 131 0
-18 69 93 131 0
16 -74 104 131 0
-18 -78 107 131 0
15 41 110 131 0
12 55 -94 -132 0
-21 -75 103 -132 0
32 72 104 -132 0
-23 -54 -112 -132 0
10 -51 -118 -132 0
-22 -70 85 132 0
-24 45 -96 132 0
1 -76 -83 -133 0
8 63 95 -133 0
12 -43 106 -133 0
5 -48 115 -133 0
-5 -57 -89 133 0
21 -45 -84 -134 0
-13 -42 101 -134 0
25 51 104 -134 0
2 79 -105 -134 0
32 -55 -119 -134 0
30 -58 87 134 0
10 59 -89 134 0
30 -62 -95 134 0
24 45 -100 134 0
-27 -46 104 134 0
-10 -69 105 134 0
-24 59 110 134 0
28 72 112 134 0
-2 70 93 -135 0
-36 79 105 -135 0
25 50 -108 -135 0
-9 -44 -81 135 0
2 47 -105 135 0
11 61 107 135 0
-32 -69 -118 135 0
-7 80 99 -136 0
-1 -60 105 -136 0
8 42 -82 136 0
22 -55 118 136 0
-28 66 -86 -137 0
-2 -64 82 137 0
-15 79 -88 137 0
-37 -75 -96 137 0
-12 -43 -99 137 0
-40 -56 -101 137 0
-15 63 82 -138 0
24 49 -90 -138 0
8 44 92 -138 0
-31 61 -94 -138 0
-10 -43 -106 -138 0
1 50 91 138 0
-3 -46 -92 138 0
-7 -60 92 138 0
-10 60 -103 138 0
-20 -75 106 138 0
8 70 -107 138 0
-13 54 110 138 0
33 -46 -114 138 0
-29 58 -117 138 0
-18 -78 -105 -139 0
33 54 -107 -139 0
-18 44 -108 -139 0
24 -52 115 -139 0
26 -69 82 139 0
24 -70 -94 139 0
-32 -62 83 -140 0
32 -53 -89 -140 0
-26 77 107 -140 0
-4 59 -116 -140 0
18 67 -117 -140 0
9 -58 81 140 0
20 55 -89 140 0
9 77 94 140 0
10 55 -104 140 0
4 -46 -109 140 0
-20 44 -91 -141 0
-29 46 92 -141 0
-23 -74 115 -141 0
-3 -61 120 -141 0
-36 -67 102 141 0
-30 57 106 141 0
-15 -74 112 141 0
39 -50 -83 -142 0
-11 50 88 -142 0
-33 -51 -106 -142 0
-3 -73 100 142 0
-38 60 -103 142 0
-13 59 105 142 0
-30 -64 117 142 0
14 -65 118 142 0
-5 80 95 -143 0
-37 78 -100 -143 0
-30 80 107 -143 0
14 53 -112 -143 0
-7 56 -86 143 0
8 -49 94 143 0
-8 -61 108 143 0
-9 -76 116 143 0
9 -67 -118 143 0
-25 59 94 -144 0
-14 -56 -101 -144 0
-13 -44 -102 -144 0
-35 69 105 -144 0
-7 75 107 -144 0
-39 77 -109 -144 0
7 57 -89 144 0
11 80 -95 144 0
-18 -70 -99 144 0
1 -52 -109 144 0
-9 -69 111 144 0
-34 -76 117 144 0
-3 51 104 -145 0
30 -52 115 -145 0
29 67 -117 -145 0
29 -56 -83 145 0
-21 -50 111 145 0
25 57 115 145 0
-32 57 -113 -146 0
5 46 -89 -147 0
8 -80 -101 -147 0
-37 61 91 147 0
17 -77 -96 147 0
29 -45 99 147 0
-26 -72 89 -148 0
26 -52 -96 -148 0
-4 -45 -107 -148 0
2 -55 107 -148 0
10 70 111 -148 0
-4 57 -116 -148 0
-24 50 -98 148 0
-34 -80 100 148 0
34 59 108 148 0
-15 70 -97 -149 0
30 -70 -100 -149 0
4 57 105 -149 0
-39 -65 96 149 0
-24 -76 101 149 0
14 -55 106 149 0
-28 -72 112 149 0
-20 41 117 149 0
-4 60 82 -150 0
-3 -44 91 -150 0
9 78 -97 -150 0
28 73 104 -150 0
40 -54 -107 -150 0
21 -67 -91 150 0
35 50 95 150 0
-37 -49 105 150 0
6 -80 -106 150 0
-31 -61 -114 150 0
35 -72 -116 150 0
37 68 -83 -151 0
-24 69 109 -151 0
39 63 116 -151 0
-40 -70 -90 151 0
1 54 91 151 0
8 78 -97 151 0
-28 79 91 -152 0
-31 55 108 -152 0
-5 -46 89 152 0
19 -46 -93 152 0
5 -69 -117 152 0
10 -76 119 152 0
-35 65 -90 -153 0
-35 -49 -94 -153 0
35 -72 101 -153 0
14 53 -104 -153 0
28 48 89 153 0
-26 -46 102 153 0
-10 56 91 -154 0
-40 -63 -104 -154 0
-1 -55 -105 -154 0
-38 45 108 -154 0
34 -42 116 -154 0
5 73 93 154 0
-35 -45 -106 154 0
-25 -63 -98 -155 0
-22 42 -83 155 0
25 -52 103 155 0
-27 71 103 155 0
-30 -50 -107 155 0
-13 -69 -117 155 0
-28 60 117 155 0
-17 70 109 -156 0
36 -50 -98 156 0
-6 71 99 156 0
26 -59 -101 156 0
28 50 -114 -157 0
10 65 92 157 0
-35 57 99 157 0
-3 63 108 157 0
-26 -80 -83 -158 0
14 -62 -91 -158 0
-11 76 110 -158 0
3 61 89 158 0
-37 -47 119 158 0
2 -63 85 -159 0
39 -69 -101 -159 0
6 75 105 -159 0
36 62 111 -159 0
-10 77 -109 159 0
-6 -77 113 159 0
35 47 114 159 0
21 61 83 -160 0
-7 -52 92 -160 0
-36 71 -90 160 0
10 64 93 160 0
12 72 -116 160 0
